benchmarks/crosswords/mzn/crossword3_21.ozn
output ([(((("\n"++problem_name)++"\n")++"L:")++show(L))++"\n"]++[if problem[i,j]==0 then "*" else show(letters[fix(L[problem[i,j]])]) endif++if j==cols then "\n" else "" endif | i in 1..rows, j in 1..cols, ])++["\n"];
int: rows = 19;
int: cols = 19;
array [1..rows,1..cols] of int: problem = [|1,2,3,4,5,0,0,6,7,8,9,10,0,0,11,12,13,14,15|16,17,18,19,20,0,21,22,23,24,25,26,27,0,28,29,30,31,32|33,34,35,36,37,38,39,40,41,42,43,44,45,0,46,47,48,49,50|51,52,53,54,0,55,56,57,58,59,0,0,60,61,62,63,64,65,66|0,0,0,67,68,69,70,71,72,0,73,74,75,76,77,78,79,0,0|80,81,82,83,84,85,86,0,0,87,88,89,90,91,0,92,93,94,95|96,97,98,99,100,0,0,101,102,103,104,105,106,107,0,0,108,109,110|111,112,113,0,0,114,115,116,117,118,119,120,121,0,122,123,124,125,126|127,128,129,130,0,131,132,133,134,135,0,0,0,136,137,138,139,140,141|0,0,142,143,144,145,146,147,148,0,149,150,151,152,153,154,155,0,0|156,157,158,159,160,161,0,0,0,162,163,164,165,166,0,167,168,169,170|171,172,173,174,175,0,176,177,178,179,180,181,182,183,0,0,184,185,186|187,188,189,0,0,190,191,192,193,194,195,196,0,0,197,198,199,200,201|202,203,204,205,0,206,207,208,209,210,0,0,211,212,213,214,215,216,217|0,0,218,219,220,221,222,223,224,0,225,226,227,228,229,230,0,0,0|231,232,233,234,235,236,237,0,0,238,239,240,241,242,0,243,244,245,246|247,248,249,250,251,0,252,253,254,255,256,257,258,259,260,261,262,263,264|265,266,267,268,269,0,270,271,272,273,274,275,276,0,277,278,279,280,281|282,283,284,285,286,0,0,287,288,289,290,291,0,0,292,293,294,295,296|];
int: num_letters = 26;
array [1..num_letters] of string: letters = ["a","b","c","d","e","f","g","h","i","j","k","l","m","n","o","p","q","r","s","t","u","v","w","x","y","z"];
int: N = 296;
array [0..N] of int: L;
string: problem_name = "19.02, 19 x 19";
