benchmarks/crosswords/mzn/crossword3_21.res
REGULAR
REGULAR
REGULAR
REGULAR
REGULAR
REGULAR
REGULAR
REGULAR
REGULAR
REGULAR
REGULAR
REGULAR
REGULAR
REGULAR
REGULAR
REGULAR
REGULAR
REGULAR
REGULAR
REGULAR
REGULAR
REGULAR
REGULAR
REGULAR
REGULAR
REGULAR
REGULAR
REGULAR
REGULAR
REGULAR
REGULAR
REGULAR
REGULAR
REGULAR
REGULAR
REGULAR
REGULAR
REGULAR
REGULAR
REGULAR
REGULAR
REGULAR
REGULAR
REGULAR
REGULAR
REGULAR
REGULAR
REGULAR
REGULAR
REGULAR
REGULAR
REGULAR
REGULAR
REGULAR
REGULAR
REGULAR
REGULAR
REGULAR
REGULAR
REGULAR
REGULAR
REGULAR
REGULAR
REGULAR
REGULAR
REGULAR
REGULAR
REGULAR
REGULAR
REGULAR
REGULAR
REGULAR
REGULAR
REGULAR
REGULAR
REGULAR
REGULAR
REGULAR
REGULAR
REGULAR
REGULAR
REGULAR
REGULAR
REGULAR
REGULAR
REGULAR
REGULAR
REGULAR
REGULAR
REGULAR
REGULAR
REGULAR
REGULAR
REGULAR
REGULAR
REGULAR
REGULAR
REGULAR
REGULAR
REGULAR
REGULAR
REGULAR
REGULAR
REGULAR
REGULAR
REGULAR
REGULAR
REGULAR
REGULAR
REGULAR
REGULAR
REGULAR
REGULAR
REGULAR
REGULAR
REGULAR
REGULAR
REGULAR
L = array1d(0..296, [1, 14, 1, 13, 4, 1, 5, 9, 19, 1, 2, 1, 19, 1, 8, 12, 1, 14, 5, 5, 4, 1, 4, 1, 13, 18, 1, 14, 25, 12, 9, 3, 9, 3, 9, 8, 16, 1, 18, 7, 15, 14, 1, 5, 3, 15, 14, 5, 11, 1, 15, 19, 14, 1, 13, 4, 5, 2, 9, 10, 19, 14, 15, 19, 1, 5, 18, 1, 18, 1, 13, 1, 19, 14, 1, 3, 9, 20, 1, 22, 19, 25, 5, 18, 16, 19, 15, 19, 1, 18, 9, 12, 5, 15, 12, 1, 4, 5, 20, 3, 1, 19, 20, 14, 5, 9, 18, 15, 12, 1, 3, 1, 18, 1, 4, 5, 13, 12, 1, 2, 13, 5, 20, 5, 19, 14, 9, 7, 21, 12, 16, 5, 5, 12, 5, 16, 19, 9, 18, 15, 1, 13, 9, 1, 18, 21, 4, 1, 13, 4, 14, 15, 13, 13, 1, 8, 25, 19, 20, 18, 21, 3, 5, 9, 18, 5, 1, 3, 3, 1, 25, 18, 5, 14, 23, 15, 4, 5, 19, 14, 1, 5, 12, 3, 5, 4, 15, 1, 22, 5, 19, 5, 19, 9, 1, 18, 2, 12, 1, 26, 9, 18, 14, 5, 22, 19, 1, 2, 1, 1, 11, 18, 5, 9, 11, 3, 1, 20, 18, 5, 20, 1, 2, 5, 4, 5, 18, 15, 14, 7, 9, 19, 19, 5, 3, 19, 2, 1, 5, 20, 1, 7, 1, 18, 1, 5, 19, 4, 5, 16, 9, 2, 12, 1, 14, 15, 9, 20, 9, 19, 15, 16, 5, 18, 16, 5, 3, 25, 12, 1, 19, 5, 9, 12, 12, 1, 18, 8, 1, 18, 1, 19, 23, 1, 8, 19, 16, 19, 20, 19, 5, 20, 20, 16, 1, 4, 1]);
----------

%%  runtime:       13.414 (13414.071 ms)
%%  solvetime:     0.250 (250.499 ms)
%%  solutions:     1
%%  variables:     24914
%%  propagators:   31638
%%  propagations:  455489
%%  nodes:         153
%%  failures:      29
%%  restarts:      0
%%  peak depth:    103

GECODE_TUPLESET_MEM
GECODE_TUPLESET_MEM
GECODE_TUPLESET_MEM
GECODE_TUPLESET_MEM
GECODE_TUPLESET_MEM
GECODE_TUPLESET_MEM
GECODE_TUPLESET_MEM
GECODE_TUPLESET_MEM
GECODE_TUPLESET_MEM
GECODE_TUPLESET_MEM
GECODE_TUPLESET_MEM
GECODE_TUPLESET_MEM
GECODE_TUPLESET_MEM
GECODE_TUPLESET_MEM
GECODE_TUPLESET_MEM
GECODE_TUPLESET_MEM
GECODE_TUPLESET_MEM
GECODE_TUPLESET_MEM
GECODE_TUPLESET_MEM
GECODE_TUPLESET_MEM
GECODE_TUPLESET_MEM
GECODE_TUPLESET_MEM
GECODE_TUPLESET_MEM
GECODE_TUPLESET_MEM
GECODE_TUPLESET_MEM
GECODE_TUPLESET_MEM
GECODE_TUPLESET_MEM
GECODE_TUPLESET_MEM
GECODE_TUPLESET_MEM
GECODE_TUPLESET_MEM
GECODE_TUPLESET_MEM
GECODE_TUPLESET_MEM
GECODE_TUPLESET_MEM
GECODE_TUPLESET_MEM
GECODE_TUPLESET_MEM
GECODE_TUPLESET_MEM
GECODE_TUPLESET_MEM
GECODE_TUPLESET_MEM
GECODE_TUPLESET_MEM
GECODE_TUPLESET_MEM
GECODE_TUPLESET_MEM
GECODE_TUPLESET_MEM
GECODE_TUPLESET_MEM
GECODE_TUPLESET_MEM
GECODE_TUPLESET_MEM
GECODE_TUPLESET_MEM
GECODE_TUPLESET_MEM
GECODE_TUPLESET_MEM
GECODE_TUPLESET_MEM
GECODE_TUPLESET_MEM
GECODE_TUPLESET_MEM
GECODE_TUPLESET_MEM
GECODE_TUPLESET_MEM
GECODE_TUPLESET_MEM
GECODE_TUPLESET_MEM
GECODE_TUPLESET_MEM
GECODE_TUPLESET_MEM
GECODE_TUPLESET_MEM
GECODE_TUPLESET_MEM
GECODE_TUPLESET_MEM
GECODE_TUPLESET_MEM
GECODE_TUPLESET_MEM
GECODE_TUPLESET_MEM
GECODE_TUPLESET_MEM
GECODE_TUPLESET_MEM
GECODE_TUPLESET_MEM
GECODE_TUPLESET_MEM
GECODE_TUPLESET_MEM
GECODE_TUPLESET_MEM
GECODE_TUPLESET_MEM
GECODE_TUPLESET_MEM
GECODE_TUPLESET_MEM
GECODE_TUPLESET_MEM
GECODE_TUPLESET_MEM
GECODE_TUPLESET_MEM
GECODE_TUPLESET_MEM
GECODE_TUPLESET_MEM
GECODE_TUPLESET_MEM
GECODE_TUPLESET_MEM
GECODE_TUPLESET_MEM
GECODE_TUPLESET_MEM
GECODE_TUPLESET_MEM
GECODE_TUPLESET_MEM
GECODE_TUPLESET_MEM
GECODE_TUPLESET_MEM
GECODE_TUPLESET_MEM
GECODE_TUPLESET_MEM
GECODE_TUPLESET_MEM
GECODE_TUPLESET_MEM
GECODE_TUPLESET_MEM
GECODE_TUPLESET_MEM
GECODE_TUPLESET_MEM
GECODE_TUPLESET_MEM
GECODE_TUPLESET_MEM
GECODE_TUPLESET_MEM
GECODE_TUPLESET_MEM
GECODE_TUPLESET_MEM
GECODE_TUPLESET_MEM
GECODE_TUPLESET_MEM
GECODE_TUPLESET_MEM
GECODE_TUPLESET_MEM
GECODE_TUPLESET_MEM
GECODE_TUPLESET_MEM
GECODE_TUPLESET_MEM
GECODE_TUPLESET_MEM
GECODE_TUPLESET_MEM
GECODE_TUPLESET_MEM
GECODE_TUPLESET_MEM
GECODE_TUPLESET_MEM
GECODE_TUPLESET_MEM
GECODE_TUPLESET_MEM
GECODE_TUPLESET_MEM
GECODE_TUPLESET_MEM
GECODE_TUPLESET_MEM
GECODE_TUPLESET_MEM
GECODE_TUPLESET_MEM
GECODE_TUPLESET_MEM
GECODE_TUPLESET_MEM
L = array1d(0..296, [1, 7, 12, 1, 14, 4, 19, 3, 1, 12, 16, 23, 1, 3, 11, 15, 12, 5, 12, 9, 1, 8, 9, 1, 12, 5, 1, 8, 5, 21, 12, 5, 18, 9, 14, 19, 5, 14, 19, 9, 20, 9, 22, 5, 12, 25, 4, 18, 1, 16, 5, 2, 15, 15, 2, 1, 4, 1, 14, 1, 4, 21, 7, 15, 21, 20, 19, 21, 4, 4, 5, 18, 19, 16, 21, 18, 19, 5, 18, 19, 1, 14, 3, 8, 15, 18, 19, 1, 21, 18, 1, 5, 1, 20, 5, 19, 7, 5, 1, 18, 19, 13, 1, 14, 11, 9, 14, 4, 18, 1, 16, 18, 1, 13, 1, 12, 5, 18, 20, 5, 19, 20, 6, 12, 15, 18, 1, 1, 12, 5, 3, 18, 1, 13, 15, 19, 4, 5, 5, 16, 12, 25, 12, 1, 15, 3, 15, 15, 14, 1, 1, 12, 9, 25, 1, 8, 6, 10, 15, 18, 4, 19, 1, 12, 12, 1, 14, 4, 15, 18, 11, 12, 1, 16, 19, 5, 3, 21, 18, 9, 20, 9, 2, 1, 2, 1, 1, 1, 14, 1, 3, 1, 13, 5, 12, 15, 20, 6, 5, 9, 7, 14, 11, 1, 18, 9, 18, 9, 16, 5, 19, 3, 1, 18, 3, 1, 19, 5, 4, 15, 14, 5, 20, 19, 11, 1, 4, 15, 14, 9, 19, 5, 13, 1, 14, 21, 5, 12, 3, 12, 9, 14, 20, 20, 5, 1, 18, 19, 15, 12, 9, 4, 9, 4, 5, 15, 12, 15, 7, 9, 3, 1, 12, 12, 25, 16, 18, 9, 26, 5, 14, 1, 18, 13, 1, 4, 1, 1, 19, 1, 13, 1, 25, 5, 19, 5, 19, 2, 18, 1, 8, 5, 12, 25, 13, 1, 14]);
----------

%%  runtime:       4.203 (4203.262 ms)
%%  solvetime:     2.999 (2999.456 ms)
%%  solutions:     1
%%  variables:     24914
%%  propagators:   31638
%%  propagations:  8167275
%%  nodes:         2264
%%  failures:      1091
%%  restarts:      0
%%  peak depth:    104

GECODE_TUPLESET_SPEED
GECODE_TUPLESET_SPEED
GECODE_TUPLESET_SPEED
GECODE_TUPLESET_SPEED
GECODE_TUPLESET_SPEED
GECODE_TUPLESET_SPEED
GECODE_TUPLESET_SPEED
GECODE_TUPLESET_SPEED
GECODE_TUPLESET_SPEED
GECODE_TUPLESET_SPEED
GECODE_TUPLESET_SPEED
GECODE_TUPLESET_SPEED
GECODE_TUPLESET_SPEED
GECODE_TUPLESET_SPEED
GECODE_TUPLESET_SPEED
GECODE_TUPLESET_SPEED
GECODE_TUPLESET_SPEED
GECODE_TUPLESET_SPEED
GECODE_TUPLESET_SPEED
GECODE_TUPLESET_SPEED
GECODE_TUPLESET_SPEED
GECODE_TUPLESET_SPEED
GECODE_TUPLESET_SPEED
GECODE_TUPLESET_SPEED
GECODE_TUPLESET_SPEED
GECODE_TUPLESET_SPEED
GECODE_TUPLESET_SPEED
GECODE_TUPLESET_SPEED
GECODE_TUPLESET_SPEED
GECODE_TUPLESET_SPEED
GECODE_TUPLESET_SPEED
GECODE_TUPLESET_SPEED
GECODE_TUPLESET_SPEED
GECODE_TUPLESET_SPEED
GECODE_TUPLESET_SPEED
GECODE_TUPLESET_SPEED
GECODE_TUPLESET_SPEED
GECODE_TUPLESET_SPEED
GECODE_TUPLESET_SPEED
GECODE_TUPLESET_SPEED
GECODE_TUPLESET_SPEED
GECODE_TUPLESET_SPEED
GECODE_TUPLESET_SPEED
GECODE_TUPLESET_SPEED
GECODE_TUPLESET_SPEED
GECODE_TUPLESET_SPEED
GECODE_TUPLESET_SPEED
GECODE_TUPLESET_SPEED
GECODE_TUPLESET_SPEED
GECODE_TUPLESET_SPEED
GECODE_TUPLESET_SPEED
GECODE_TUPLESET_SPEED
GECODE_TUPLESET_SPEED
GECODE_TUPLESET_SPEED
GECODE_TUPLESET_SPEED
GECODE_TUPLESET_SPEED
GECODE_TUPLESET_SPEED
GECODE_TUPLESET_SPEED
GECODE_TUPLESET_SPEED
GECODE_TUPLESET_SPEED
GECODE_TUPLESET_SPEED
GECODE_TUPLESET_SPEED
GECODE_TUPLESET_SPEED
GECODE_TUPLESET_SPEED
GECODE_TUPLESET_SPEED
GECODE_TUPLESET_SPEED
GECODE_TUPLESET_SPEED
GECODE_TUPLESET_SPEED
GECODE_TUPLESET_SPEED
GECODE_TUPLESET_SPEED
GECODE_TUPLESET_SPEED
GECODE_TUPLESET_SPEED
GECODE_TUPLESET_SPEED
GECODE_TUPLESET_SPEED
GECODE_TUPLESET_SPEED
GECODE_TUPLESET_SPEED
GECODE_TUPLESET_SPEED
GECODE_TUPLESET_SPEED
GECODE_TUPLESET_SPEED
GECODE_TUPLESET_SPEED
GECODE_TUPLESET_SPEED
GECODE_TUPLESET_SPEED
GECODE_TUPLESET_SPEED
GECODE_TUPLESET_SPEED
GECODE_TUPLESET_SPEED
GECODE_TUPLESET_SPEED
GECODE_TUPLESET_SPEED
GECODE_TUPLESET_SPEED
GECODE_TUPLESET_SPEED
GECODE_TUPLESET_SPEED
GECODE_TUPLESET_SPEED
GECODE_TUPLESET_SPEED
GECODE_TUPLESET_SPEED
GECODE_TUPLESET_SPEED
GECODE_TUPLESET_SPEED
GECODE_TUPLESET_SPEED
GECODE_TUPLESET_SPEED
GECODE_TUPLESET_SPEED
GECODE_TUPLESET_SPEED
GECODE_TUPLESET_SPEED
GECODE_TUPLESET_SPEED
GECODE_TUPLESET_SPEED
GECODE_TUPLESET_SPEED
GECODE_TUPLESET_SPEED
GECODE_TUPLESET_SPEED
GECODE_TUPLESET_SPEED
GECODE_TUPLESET_SPEED
GECODE_TUPLESET_SPEED
GECODE_TUPLESET_SPEED
GECODE_TUPLESET_SPEED
GECODE_TUPLESET_SPEED
GECODE_TUPLESET_SPEED
GECODE_TUPLESET_SPEED
GECODE_TUPLESET_SPEED
GECODE_TUPLESET_SPEED
GECODE_TUPLESET_SPEED
GECODE_TUPLESET_SPEED
GECODE_TUPLESET_SPEED
L = array1d(0..296, [1, 7, 12, 1, 14, 4, 19, 3, 1, 12, 16, 23, 1, 3, 11, 15, 12, 5, 12, 9, 1, 8, 9, 1, 12, 5, 1, 8, 5, 21, 12, 5, 18, 9, 14, 19, 5, 14, 19, 9, 20, 9, 22, 5, 12, 25, 4, 18, 1, 16, 5, 2, 15, 15, 2, 1, 4, 1, 14, 1, 4, 21, 7, 15, 21, 20, 19, 21, 4, 4, 5, 18, 19, 16, 21, 18, 19, 5, 18, 19, 1, 14, 3, 8, 15, 18, 19, 1, 21, 18, 1, 5, 1, 20, 5, 19, 7, 5, 1, 18, 19, 13, 1, 14, 11, 9, 14, 4, 18, 1, 16, 18, 1, 13, 1, 12, 5, 18, 20, 5, 19, 20, 6, 12, 15, 18, 1, 1, 12, 5, 3, 18, 1, 13, 15, 19, 4, 5, 5, 16, 12, 25, 12, 1, 15, 3, 15, 15, 14, 1, 1, 12, 9, 25, 1, 8, 6, 10, 15, 18, 4, 19, 1, 12, 12, 1, 14, 4, 15, 18, 11, 12, 1, 16, 19, 5, 3, 21, 18, 9, 20, 9, 2, 1, 2, 1, 1, 1, 14, 1, 3, 1, 13, 5, 12, 15, 20, 6, 5, 9, 7, 14, 11, 1, 18, 9, 18, 9, 16, 5, 19, 3, 1, 18, 3, 1, 19, 5, 4, 15, 14, 5, 20, 19, 11, 1, 4, 15, 14, 9, 19, 5, 13, 1, 14, 21, 5, 12, 3, 12, 9, 14, 20, 20, 5, 1, 18, 19, 15, 12, 9, 4, 9, 4, 5, 15, 12, 15, 7, 9, 3, 1, 12, 12, 25, 16, 18, 9, 26, 5, 14, 1, 18, 13, 1, 4, 1, 1, 19, 1, 13, 1, 25, 5, 19, 5, 19, 2, 18, 1, 8, 5, 12, 25, 13, 1, 14]);
----------

%%  runtime:       4.015 (4015.094 ms)
%%  solvetime:     2.860 (2860.001 ms)
%%  solutions:     1
%%  variables:     24914
%%  propagators:   31638
%%  propagations:  8287661
%%  nodes:         2264
%%  failures:      1091
%%  restarts:      0
%%  peak depth:    104

COMPACT_TABLE
COMPACT_TABLE
COMPACT_TABLE
COMPACT_TABLE
COMPACT_TABLE
COMPACT_TABLE
COMPACT_TABLE
COMPACT_TABLE
COMPACT_TABLE
COMPACT_TABLE
COMPACT_TABLE
COMPACT_TABLE
COMPACT_TABLE
COMPACT_TABLE
COMPACT_TABLE
COMPACT_TABLE
COMPACT_TABLE
COMPACT_TABLE
COMPACT_TABLE
COMPACT_TABLE
COMPACT_TABLE
COMPACT_TABLE
COMPACT_TABLE
COMPACT_TABLE
COMPACT_TABLE
COMPACT_TABLE
COMPACT_TABLE
COMPACT_TABLE
COMPACT_TABLE
COMPACT_TABLE
COMPACT_TABLE
COMPACT_TABLE
COMPACT_TABLE
COMPACT_TABLE
COMPACT_TABLE
COMPACT_TABLE
COMPACT_TABLE
COMPACT_TABLE
COMPACT_TABLE
COMPACT_TABLE
COMPACT_TABLE
COMPACT_TABLE
COMPACT_TABLE
COMPACT_TABLE
COMPACT_TABLE
COMPACT_TABLE
COMPACT_TABLE
COMPACT_TABLE
COMPACT_TABLE
COMPACT_TABLE
COMPACT_TABLE
COMPACT_TABLE
COMPACT_TABLE
COMPACT_TABLE
COMPACT_TABLE
COMPACT_TABLE
COMPACT_TABLE
COMPACT_TABLE
COMPACT_TABLE
COMPACT_TABLE
COMPACT_TABLE
COMPACT_TABLE
COMPACT_TABLE
COMPACT_TABLE
COMPACT_TABLE
COMPACT_TABLE
COMPACT_TABLE
COMPACT_TABLE
COMPACT_TABLE
COMPACT_TABLE
COMPACT_TABLE
COMPACT_TABLE
COMPACT_TABLE
COMPACT_TABLE
COMPACT_TABLE
COMPACT_TABLE
COMPACT_TABLE
COMPACT_TABLE
COMPACT_TABLE
COMPACT_TABLE
COMPACT_TABLE
COMPACT_TABLE
COMPACT_TABLE
COMPACT_TABLE
COMPACT_TABLE
COMPACT_TABLE
COMPACT_TABLE
COMPACT_TABLE
COMPACT_TABLE
COMPACT_TABLE
COMPACT_TABLE
COMPACT_TABLE
COMPACT_TABLE
COMPACT_TABLE
COMPACT_TABLE
COMPACT_TABLE
COMPACT_TABLE
COMPACT_TABLE
COMPACT_TABLE
COMPACT_TABLE
COMPACT_TABLE
COMPACT_TABLE
COMPACT_TABLE
COMPACT_TABLE
COMPACT_TABLE
COMPACT_TABLE
COMPACT_TABLE
COMPACT_TABLE
COMPACT_TABLE
COMPACT_TABLE
COMPACT_TABLE
COMPACT_TABLE
COMPACT_TABLE
COMPACT_TABLE
COMPACT_TABLE
COMPACT_TABLE
COMPACT_TABLE
COMPACT_TABLE
L = array1d(0..296, [1, 7, 12, 1, 14, 4, 19, 3, 1, 12, 16, 23, 1, 3, 11, 15, 12, 5, 12, 9, 1, 8, 9, 1, 12, 5, 1, 8, 5, 21, 12, 5, 18, 9, 14, 19, 5, 14, 19, 9, 20, 9, 22, 5, 12, 25, 4, 18, 1, 16, 5, 2, 15, 15, 2, 1, 4, 1, 14, 1, 4, 21, 7, 15, 21, 20, 19, 21, 4, 4, 5, 18, 19, 16, 21, 18, 19, 5, 18, 19, 1, 14, 3, 8, 15, 18, 19, 1, 21, 18, 1, 5, 1, 20, 5, 19, 7, 5, 1, 18, 19, 13, 1, 14, 11, 9, 14, 4, 18, 1, 16, 18, 1, 13, 1, 12, 5, 18, 20, 5, 19, 20, 6, 12, 15, 18, 1, 1, 12, 5, 3, 18, 1, 13, 15, 19, 4, 5, 5, 16, 12, 25, 12, 1, 15, 3, 15, 15, 14, 1, 1, 12, 9, 25, 1, 8, 6, 10, 15, 18, 4, 19, 1, 12, 12, 1, 14, 4, 15, 18, 11, 12, 1, 16, 19, 5, 3, 21, 18, 9, 20, 9, 2, 1, 2, 1, 1, 1, 14, 1, 3, 1, 13, 5, 12, 15, 20, 6, 5, 9, 7, 14, 11, 1, 18, 9, 18, 9, 16, 5, 19, 3, 1, 18, 3, 1, 19, 5, 4, 15, 14, 5, 20, 19, 11, 1, 4, 15, 14, 9, 19, 5, 13, 1, 14, 21, 5, 12, 3, 12, 9, 14, 20, 20, 5, 1, 18, 19, 15, 12, 9, 4, 9, 4, 5, 15, 12, 15, 7, 9, 3, 1, 12, 12, 25, 16, 18, 9, 26, 5, 14, 1, 18, 13, 1, 4, 1, 1, 19, 1, 13, 1, 25, 5, 19, 5, 19, 2, 18, 1, 8, 5, 12, 25, 13, 1, 14]);
----------

%%  runtime:       2.997 (2997.943 ms)
%%  solvetime:     1.395 (1395.469 ms)
%%  solutions:     1
%%  variables:     24914
%%  propagators:   31638
%%  propagations:  8327352
%%  nodes:         2264
%%  failures:      1091
%%  restarts:      0
%%  peak depth:    104

